
Log started (V12.8.0.0) Tue Jun 20 18:23:25 2023

Warning, line 4: Characters after RHS value are ignored.
Warning, line 1218: '+' not valid identifier.
Warning, line 1218: '+' not valid identifier.
Warning, line 1218: '+' not valid identifier.
Warning, line 1218: '+' not valid identifier.
Warning, line 1218: '+' not valid identifier.
Warning, line 1218: '+' not valid identifier.
Warning, line 1218: '+' not valid identifier.
Warning, line 1218: '+' not valid identifier.
Warning, line 1218: '+' not valid identifier.
Warning, line 1218: '+' not valid identifier.
Warning, line 1218: '+' not valid identifier.
Warning, line 1218: '+' not valid identifier.
Warning, line 1218: '+' not valid identifier.
Warning, line 1218: '+' not valid identifier.
Warning, line 1218: '+' not valid identifier.
Warning, line 1218: '+' not valid identifier.
Warning, line 1218: '+' not valid identifier.
Warning, line 1218: '+' not valid identifier.
Warning, line 1218: '+' not valid identifier.
Warning, line 1218: '+' not valid identifier.
Warning: 'End' missing.
463 name warnings not printed.

Problem '/home/ahmadalikhani/Desktop/astran-new-cmd/bin/Debug/ILPmodel.lp' read.
Read time = 0.01 sec. (0.11 ticks)
Tried aggregator 4 times.
MIP Presolve eliminated 376 rows and 115 columns.
MIP Presolve modified 166 coefficients.
Aggregator did 128 substitutions.
Reduced MIP has 709 rows, 436 columns, and 2012 nonzeros.
Reduced MIP has 200 binaries, 236 generals, 0 SOSs, and 0 indicators.
Presolve time = 0.01 sec. (3.46 ticks)
Probing time = 0.00 sec. (0.25 ticks)
Cover probing fixed 0 vars, tightened 3 bounds.
Tried aggregator 1 time.
MIP Presolve eliminated 2 rows and 0 columns.
MIP Presolve modified 72 coefficients.
Reduced MIP has 707 rows, 436 columns, and 2008 nonzeros.
Reduced MIP has 200 binaries, 236 generals, 0 SOSs, and 0 indicators.
Presolve time = 0.00 sec. (1.17 ticks)
Probing time = 0.00 sec. (0.25 ticks)
Clique table members: 50.
MIP emphasis: balance optimality and feasibility.
MIP search method: dynamic search.
Parallel mode: deterministic, using up to 8 threads.
Root relaxation solution time = 0.01 sec. (3.30 ticks)

        Nodes                                         Cuts/
   Node  Left     Objective  IInf  Best Integer    Best Bound    ItCnt     Gap

      0     0   607040.2739   210                 607040.2739      219         
      0     0   607231.0302    99                    Cuts: 67      269         
      0     0   607256.6270   210                    Cuts: 29      297         
      0     0   607256.6270   210                 ZeroHalf: 3      299         
*     0+    0                      1014575.0000   607256.6270            40.15%
*     0+    0                       607867.0000   607256.6270             0.10%
      0     2   607256.6270   178   607867.0000   607366.9349      299    0.08%
Elapsed time = 0.35 sec. (114.81 ticks, tree = 0.01 MB, solutions = 2)
*    23+    2                       607851.0000   607366.9349             0.08%
*   294+  131                       607780.0000   607366.9349             0.07%
*   516   313      integral     0   607586.0000   607366.9349     2061    0.04%
*  1318+  331                       607522.0000   607394.6524             0.02%
*  1691   460      integral     0   607519.0000   607418.3307     7450    0.02%
*  1694   455      integral     0   607518.0000   607418.3307     7558    0.02%
*  1771+  482                       607476.0000   607424.9018             0.01%

Implied bound cuts applied:  24
Mixed integer rounding cuts applied:  14
Zero-half cuts applied:  2
Lift and project cuts applied:  2
Gomory fractional cuts applied:  42

Root node processing (before b&c):
  Real time             =    0.35 sec. (114.54 ticks)
Parallel b&c, 8 threads:
  Real time             =    0.45 sec. (131.00 ticks)
  Sync time (average)   =    0.13 sec.
  Wait time (average)   =    0.00 sec.
                          ------------
Total (root+branch&cut) =    0.80 sec. (245.54 ticks)

Solution pool: 13 solutions saved.

MIP - Integer optimal, tolerance (0.0001/1e-06):  Objective =  6.0747600000e+05
Current MIP best bound =  6.0742821956e+05 (gap = 47.7804, 0.01%)
Solution time =    0.80 sec.  Iterations = 9806  Nodes = 2028 (226)
Deterministic time = 245.54 ticks  (306.50 ticks/sec)


Incumbent solution written to file '/home/ahmadalikhani/Desktop/astran-new-cmd/bin/Debug/xmlsol.sol'.

Log started (V12.8.0.0) Tue Jun 20 18:23:26 2023

Warning, line 4: Characters after RHS value are ignored.
Warning, line 1218: '+' not valid identifier.
Warning, line 1218: '+' not valid identifier.
Warning, line 1218: '+' not valid identifier.
Warning, line 1218: '+' not valid identifier.
Warning, line 1218: '+' not valid identifier.
Warning, line 1218: '+' not valid identifier.
Warning, line 1218: '+' not valid identifier.
Warning, line 1218: '+' not valid identifier.
Warning, line 1218: '+' not valid identifier.
Warning, line 1218: '+' not valid identifier.
Warning, line 1218: '+' not valid identifier.
Warning, line 1218: '+' not valid identifier.
Warning, line 1218: '+' not valid identifier.
Warning, line 1218: '+' not valid identifier.
Warning, line 1218: '+' not valid identifier.
Warning, line 1218: '+' not valid identifier.
Warning, line 1218: '+' not valid identifier.
Warning, line 1218: '+' not valid identifier.
Warning, line 1218: '+' not valid identifier.
Warning, line 1218: '+' not valid identifier.
Warning: 'End' missing.
463 name warnings not printed.

Problem '/home/ahmadalikhani/Desktop/astran-new-cmd/bin/Debug/ILPmodel.lp' read.
Read time = 0.00 sec. (0.11 ticks)
Tried aggregator 4 times.
MIP Presolve eliminated 376 rows and 115 columns.
MIP Presolve modified 166 coefficients.
Aggregator did 128 substitutions.
Reduced MIP has 709 rows, 436 columns, and 2012 nonzeros.
Reduced MIP has 200 binaries, 236 generals, 0 SOSs, and 0 indicators.
Presolve time = 0.01 sec. (3.46 ticks)
Probing time = 0.00 sec. (0.25 ticks)
Cover probing fixed 0 vars, tightened 3 bounds.
Tried aggregator 1 time.
MIP Presolve eliminated 2 rows and 0 columns.
MIP Presolve modified 72 coefficients.
Reduced MIP has 707 rows, 436 columns, and 2008 nonzeros.
Reduced MIP has 200 binaries, 236 generals, 0 SOSs, and 0 indicators.
Presolve time = 0.00 sec. (1.17 ticks)
Probing time = 0.00 sec. (0.25 ticks)
Clique table members: 50.
MIP emphasis: balance optimality and feasibility.
MIP search method: dynamic search.
Parallel mode: deterministic, using up to 8 threads.
Root relaxation solution time = 0.01 sec. (3.30 ticks)

        Nodes                                         Cuts/
   Node  Left     Objective  IInf  Best Integer    Best Bound    ItCnt     Gap

      0     0   607040.2739   210                 607040.2739      219         
      0     0   607231.0302    99                    Cuts: 67      269         
      0     0   607256.6270   210                    Cuts: 29      297         
      0     0   607256.6270   210                 ZeroHalf: 3      299         
*     0+    0                      1014575.0000   607256.6270            40.15%
*     0+    0                       607867.0000   607256.6270             0.10%
      0     2   607256.6270   178   607867.0000   607366.9349      299    0.08%
Elapsed time = 0.39 sec. (114.81 ticks, tree = 0.01 MB, solutions = 2)
*    23+    2                       607851.0000   607366.9349             0.08%
*   294+  131                       607780.0000   607366.9349             0.07%
*   516   313      integral     0   607586.0000   607366.9349     2061    0.04%
*  1318+  331                       607522.0000   607394.6524             0.02%
*  1691   460      integral     0   607519.0000   607418.3307     7450    0.02%
*  1694   455      integral     0   607518.0000   607418.3307     7558    0.02%
*  1771+  482                       607476.0000   607424.9018             0.01%

Implied bound cuts applied:  24
Mixed integer rounding cuts applied:  14
Zero-half cuts applied:  2
Lift and project cuts applied:  2
Gomory fractional cuts applied:  42

Root node processing (before b&c):
  Real time             =    0.38 sec. (114.54 ticks)
Parallel b&c, 8 threads:
  Real time             =    0.45 sec. (131.00 ticks)
  Sync time (average)   =    0.15 sec.
  Wait time (average)   =    0.00 sec.
                          ------------
Total (root+branch&cut) =    0.82 sec. (245.54 ticks)

Solution pool: 13 solutions saved.

MIP - Integer optimal, tolerance (0.0001/1e-06):  Objective =  6.0747600000e+05
Current MIP best bound =  6.0742821956e+05 (gap = 47.7804, 0.01%)
Solution time =    0.83 sec.  Iterations = 9806  Nodes = 2028 (226)
Deterministic time = 245.54 ticks  (295.80 ticks/sec)


Incumbent solution written to file '/home/ahmadalikhani/Desktop/astran-new-cmd/bin/Debug/xmlsol.sol'.

Log started (V12.8.0.0) Tue Jun 20 18:26:21 2023

Warning, line 4: Characters after RHS value are ignored.
Warning, line 1348: '+' not valid identifier.
Warning, line 1348: '+' not valid identifier.
Warning, line 1348: '+' not valid identifier.
Warning, line 1348: '+' not valid identifier.
Warning, line 1348: '+' not valid identifier.
Warning, line 1348: '+' not valid identifier.
Warning, line 1348: '+' not valid identifier.
Warning, line 1348: '+' not valid identifier.
Warning, line 1348: '+' not valid identifier.
Warning, line 1348: '+' not valid identifier.
Warning, line 1348: '+' not valid identifier.
Warning, line 1348: '+' not valid identifier.
Warning, line 1348: '+' not valid identifier.
Warning, line 1348: '+' not valid identifier.
Warning, line 1348: '+' not valid identifier.
Warning, line 1348: '+' not valid identifier.
Warning, line 1348: '+' not valid identifier.
Warning, line 1348: '+' not valid identifier.
Warning, line 1348: '+' not valid identifier.
Warning, line 1348: '+' not valid identifier.
Warning: 'End' missing.
531 name warnings not printed.

Problem '/home/ahmadalikhani/Desktop/astran-new-cmd/bin/Debug/ILPmodel.lp' read.
Read time = 0.01 sec. (0.12 ticks)
Tried aggregator 4 times.
MIP Presolve eliminated 396 rows and 114 columns.
MIP Presolve modified 185 coefficients.
Aggregator did 128 substitutions.
Reduced MIP has 819 rows, 489 columns, and 2319 nonzeros.
Reduced MIP has 223 binaries, 266 generals, 0 SOSs, and 0 indicators.
Presolve time = 0.01 sec. (4.01 ticks)
Probing fixed 4 vars, tightened 0 bounds.
Probing time = 0.00 sec. (0.33 ticks)
Cover probing fixed 0 vars, tightened 3 bounds.
Tried aggregator 2 times.
MIP Presolve eliminated 9 rows and 7 columns.
MIP Presolve modified 86 coefficients.
Aggregator did 1 substitutions.
Reduced MIP has 809 rows, 481 columns, and 2291 nonzeros.
Reduced MIP has 215 binaries, 266 generals, 0 SOSs, and 0 indicators.
Presolve time = 0.01 sec. (2.08 ticks)
Probing time = 0.00 sec. (0.30 ticks)
Clique table members: 55.
MIP emphasis: balance optimality and feasibility.
MIP search method: dynamic search.
Parallel mode: deterministic, using up to 8 threads.
Root relaxation solution time = 0.01 sec. (4.01 ticks)

        Nodes                                         Cuts/
   Node  Left     Objective  IInf  Best Integer    Best Bound    ItCnt     Gap

      0     0   607123.1630   239                 607123.1630      256         
      0     0   607344.0560   149                    Cuts: 76      313         
      0     0   607383.1355   183                    Cuts: 35      363         
      0     0   607383.6184   175                    Cuts: 10      376         
      0     0   607383.6194   174                 ZeroHalf: 4      382         
      0     0   607387.5752   176                     Cuts: 5      388         
*     0+    0                       608003.0000   607387.5752             0.10%
      0     2   607390.6086   171   608003.0000   607387.5752      391    0.10%
Elapsed time = 0.34 sec. (99.44 ticks, tree = 0.01 MB, solutions = 1)
*    62+    2                       607997.0000   607475.4433             0.09%
*   483+  280                       607820.0000   607516.1951             0.05%
*   949+  364                       607814.0000   607516.5118             0.05%
*  1642+  765                       607771.0000   607517.8420             0.04%
*  3190+ 1125                       607762.0000   607525.2690             0.04%
*  3606+ 1212                       607757.0000   607545.4971             0.03%
   3961  1085   607752.1738    55   607757.0000   607559.8485    21076    0.03%

Cover cuts applied:  1
Implied bound cuts applied:  8
Flow cuts applied:  7
Mixed integer rounding cuts applied:  62
Zero-half cuts applied:  6
Lift and project cuts applied:  9
Gomory fractional cuts applied:  52

Root node processing (before b&c):
  Real time             =    0.33 sec. (99.13 ticks)
Parallel b&c, 8 threads:
  Real time             =    1.44 sec. (497.77 ticks)
  Sync time (average)   =    0.32 sec.
  Wait time (average)   =    0.00 sec.
                          ------------
Total (root+branch&cut) =    1.76 sec. (596.90 ticks)

Solution pool: 10 solutions saved.

MIP - Integer optimal, tolerance (0.0001/1e-06):  Objective =  6.0775700000e+05
Current MIP best bound =  6.0769623412e+05 (gap = 60.7659, 0.01%)
Solution time =    1.77 sec.  Iterations = 32989  Nodes = 5287 (1694)
Deterministic time = 596.90 ticks  (337.24 ticks/sec)


Incumbent solution written to file '/home/ahmadalikhani/Desktop/astran-new-cmd/bin/Debug/xmlsol.sol'.

Log started (V12.8.0.0) Tue Jun 20 18:26:24 2023

Warning, line 4: Characters after RHS value are ignored.
Warning, line 1348: '+' not valid identifier.
Warning, line 1348: '+' not valid identifier.
Warning, line 1348: '+' not valid identifier.
Warning, line 1348: '+' not valid identifier.
Warning, line 1348: '+' not valid identifier.
Warning, line 1348: '+' not valid identifier.
Warning, line 1348: '+' not valid identifier.
Warning, line 1348: '+' not valid identifier.
Warning, line 1348: '+' not valid identifier.
Warning, line 1348: '+' not valid identifier.
Warning, line 1348: '+' not valid identifier.
Warning, line 1348: '+' not valid identifier.
Warning, line 1348: '+' not valid identifier.
Warning, line 1348: '+' not valid identifier.
Warning, line 1348: '+' not valid identifier.
Warning, line 1348: '+' not valid identifier.
Warning, line 1348: '+' not valid identifier.
Warning, line 1348: '+' not valid identifier.
Warning, line 1348: '+' not valid identifier.
Warning, line 1348: '+' not valid identifier.
Warning: 'End' missing.
531 name warnings not printed.

Problem '/home/ahmadalikhani/Desktop/astran-new-cmd/bin/Debug/ILPmodel.lp' read.
Read time = 0.01 sec. (0.12 ticks)
Tried aggregator 4 times.
MIP Presolve eliminated 396 rows and 114 columns.
MIP Presolve modified 185 coefficients.
Aggregator did 128 substitutions.
Reduced MIP has 819 rows, 489 columns, and 2319 nonzeros.
Reduced MIP has 223 binaries, 266 generals, 0 SOSs, and 0 indicators.
Presolve time = 0.01 sec. (4.01 ticks)
Probing fixed 4 vars, tightened 0 bounds.
Probing time = 0.00 sec. (0.33 ticks)
Cover probing fixed 0 vars, tightened 3 bounds.
Tried aggregator 2 times.
MIP Presolve eliminated 9 rows and 7 columns.
MIP Presolve modified 86 coefficients.
Aggregator did 1 substitutions.
Reduced MIP has 809 rows, 481 columns, and 2291 nonzeros.
Reduced MIP has 215 binaries, 266 generals, 0 SOSs, and 0 indicators.
Presolve time = 0.00 sec. (2.08 ticks)
Probing time = 0.00 sec. (0.30 ticks)
Clique table members: 55.
MIP emphasis: balance optimality and feasibility.
MIP search method: dynamic search.
Parallel mode: deterministic, using up to 8 threads.
Root relaxation solution time = 0.01 sec. (4.01 ticks)

        Nodes                                         Cuts/
   Node  Left     Objective  IInf  Best Integer    Best Bound    ItCnt     Gap

      0     0   607123.1630   239                 607123.1630      256         
      0     0   607344.0560   149                    Cuts: 76      313         
      0     0   607383.1355   183                    Cuts: 35      363         
      0     0   607383.6184   175                    Cuts: 10      376         
      0     0   607383.6194   174                 ZeroHalf: 4      382         
      0     0   607387.5752   176                     Cuts: 5      388         
*     0+    0                       608003.0000   607387.5752             0.10%
      0     2   607390.6086   171   608003.0000   607387.5752      391    0.10%
Elapsed time = 0.34 sec. (99.44 ticks, tree = 0.01 MB, solutions = 1)
*    62+    2                       607997.0000   607475.4433             0.09%
*   483+  280                       607820.0000   607516.1951             0.05%
*   949+  364                       607814.0000   607516.5118             0.05%
*  1642+  765                       607771.0000   607517.8420             0.04%
*  3190+ 1125                       607762.0000   607525.2690             0.04%
*  3606+ 1212                       607757.0000   607545.4971             0.03%
   3961  1085   607752.1738    55   607757.0000   607559.8485    21076    0.03%

Cover cuts applied:  1
Implied bound cuts applied:  8
Flow cuts applied:  7
Mixed integer rounding cuts applied:  62
Zero-half cuts applied:  6
Lift and project cuts applied:  9
Gomory fractional cuts applied:  52

Root node processing (before b&c):
  Real time             =    0.33 sec. (99.13 ticks)
Parallel b&c, 8 threads:
  Real time             =    1.34 sec. (497.77 ticks)
  Sync time (average)   =    0.24 sec.
  Wait time (average)   =    0.00 sec.
                          ------------
Total (root+branch&cut) =    1.67 sec. (596.90 ticks)

Solution pool: 10 solutions saved.

MIP - Integer optimal, tolerance (0.0001/1e-06):  Objective =  6.0775700000e+05
Current MIP best bound =  6.0769623412e+05 (gap = 60.7659, 0.01%)
Solution time =    1.68 sec.  Iterations = 32989  Nodes = 5287 (1694)
Deterministic time = 596.90 ticks  (355.33 ticks/sec)


Incumbent solution written to file '/home/ahmadalikhani/Desktop/astran-new-cmd/bin/Debug/xmlsol.sol'.

Log started (V12.8.0.0) Tue Jun 20 18:26:31 2023

Warning, line 4: Characters after RHS value are ignored.
Warning, line 1018: '+' not valid identifier.
Warning, line 1018: '+' not valid identifier.
Warning, line 1018: '+' not valid identifier.
Warning, line 1018: '+' not valid identifier.
Warning, line 1018: '+' not valid identifier.
Warning, line 1018: '+' not valid identifier.
Warning, line 1018: '+' not valid identifier.
Warning, line 1018: '+' not valid identifier.
Warning, line 1018: '+' not valid identifier.
Warning, line 1018: '+' not valid identifier.
Warning, line 1018: '+' not valid identifier.
Warning, line 1018: '+' not valid identifier.
Warning, line 1018: '+' not valid identifier.
Warning, line 1018: '+' not valid identifier.
Warning, line 1018: '+' not valid identifier.
Warning, line 1018: '+' not valid identifier.
Warning, line 1018: '+' not valid identifier.
Warning, line 1018: '+' not valid identifier.
Warning, line 1018: '+' not valid identifier.
Warning, line 1018: '+' not valid identifier.
Warning: 'End' missing.
338 name warnings not printed.

Problem '/home/ahmadalikhani/Desktop/astran-new-cmd/bin/Debug/ILPmodel.lp' read.
Read time = 0.00 sec. (0.09 ticks)
Tried aggregator 4 times.
MIP Presolve eliminated 343 rows and 109 columns.
MIP Presolve modified 135 coefficients.
Aggregator did 123 substitutions.
Reduced MIP has 547 rows, 360 columns, and 1545 nonzeros.
Reduced MIP has 167 binaries, 193 generals, 0 SOSs, and 0 indicators.
Presolve time = 0.01 sec. (2.86 ticks)
Probing time = 0.00 sec. (0.18 ticks)
Cover probing fixed 0 vars, tightened 3 bounds.
Tried aggregator 1 time.
MIP Presolve eliminated 2 rows and 0 columns.
MIP Presolve modified 48 coefficients.
Reduced MIP has 545 rows, 360 columns, and 1541 nonzeros.
Reduced MIP has 167 binaries, 193 generals, 0 SOSs, and 0 indicators.
Presolve time = 0.00 sec. (0.91 ticks)
Probing time = 0.00 sec. (0.18 ticks)
Clique table members: 41.
MIP emphasis: balance optimality and feasibility.
MIP search method: dynamic search.
Parallel mode: deterministic, using up to 8 threads.
Root relaxation solution time = 0.01 sec. (2.46 ticks)

        Nodes                                         Cuts/
   Node  Left     Objective  IInf  Best Integer    Best Bound    ItCnt     Gap

      0     0   607236.9909   158                 607236.9909      175         
      0     0   607357.1256    83                    Cuts: 58      214         
      0     0   607369.6503   117                    Cuts: 24      246         
      0     0   607369.8098   140                     Cuts: 4      257         
      0     0   607369.8098   140                     Cuts: 3      259         
*     0+    0                       611284.0000   607369.8098             0.64%
*     0+    0                       607540.0000   607369.8098             0.03%
      0     2   607369.8883   114   607540.0000   607375.3466      259    0.03%
Elapsed time = 0.27 sec. (90.23 ticks, tree = 0.01 MB, solutions = 2)
*    25+    2                       607516.0000   607375.3466             0.02%
*  1007+  443                       607481.0000   607379.1666             0.02%
*  1228+  584                       607477.0000   607379.1666             0.02%
*  1349+  562                       607421.0000   607379.1666             0.01%

Implied bound cuts applied:  15
Mixed integer rounding cuts applied:  5
Zero-half cuts applied:  3
Gomory fractional cuts applied:  34

Root node processing (before b&c):
  Real time             =    0.26 sec. (89.99 ticks)
Parallel b&c, 8 threads:
  Real time             =    0.23 sec. (66.77 ticks)
  Sync time (average)   =    0.09 sec.
  Wait time (average)   =    0.00 sec.
                          ------------
Total (root+branch&cut) =    0.50 sec. (156.76 ticks)

Solution pool: 10 solutions saved.

MIP - Integer optimal, tolerance (0.0001/1e-06):  Objective =  6.0742100000e+05
Current MIP best bound =  6.0737917279e+05 (gap = 41.8272, 0.01%)
Solution time =    0.50 sec.  Iterations = 5548  Nodes = 1461 (533)
Deterministic time = 156.76 ticks  (310.75 ticks/sec)


Incumbent solution written to file '/home/ahmadalikhani/Desktop/astran-new-cmd/bin/Debug/xmlsol.sol'.

Log started (V12.8.0.0) Tue Jun 20 18:26:31 2023

Warning, line 4: Characters after RHS value are ignored.
Warning, line 1018: '+' not valid identifier.
Warning, line 1018: '+' not valid identifier.
Warning, line 1018: '+' not valid identifier.
Warning, line 1018: '+' not valid identifier.
Warning, line 1018: '+' not valid identifier.
Warning, line 1018: '+' not valid identifier.
Warning, line 1018: '+' not valid identifier.
Warning, line 1018: '+' not valid identifier.
Warning, line 1018: '+' not valid identifier.
Warning, line 1018: '+' not valid identifier.
Warning, line 1018: '+' not valid identifier.
Warning, line 1018: '+' not valid identifier.
Warning, line 1018: '+' not valid identifier.
Warning, line 1018: '+' not valid identifier.
Warning, line 1018: '+' not valid identifier.
Warning, line 1018: '+' not valid identifier.
Warning, line 1018: '+' not valid identifier.
Warning, line 1018: '+' not valid identifier.
Warning, line 1018: '+' not valid identifier.
Warning, line 1018: '+' not valid identifier.
Warning: 'End' missing.
338 name warnings not printed.

Problem '/home/ahmadalikhani/Desktop/astran-new-cmd/bin/Debug/ILPmodel.lp' read.
Read time = 0.01 sec. (0.09 ticks)
Tried aggregator 4 times.
MIP Presolve eliminated 343 rows and 109 columns.
MIP Presolve modified 135 coefficients.
Aggregator did 123 substitutions.
Reduced MIP has 547 rows, 360 columns, and 1545 nonzeros.
Reduced MIP has 167 binaries, 193 generals, 0 SOSs, and 0 indicators.
Presolve time = 0.01 sec. (2.88 ticks)
Probing time = 0.00 sec. (0.18 ticks)
Cover probing fixed 0 vars, tightened 3 bounds.
Tried aggregator 1 time.
MIP Presolve eliminated 2 rows and 0 columns.
MIP Presolve modified 48 coefficients.
Reduced MIP has 545 rows, 360 columns, and 1541 nonzeros.
Reduced MIP has 167 binaries, 193 generals, 0 SOSs, and 0 indicators.
Presolve time = 0.00 sec. (0.91 ticks)
Probing time = 0.00 sec. (0.17 ticks)
Clique table members: 41.
MIP emphasis: balance optimality and feasibility.
MIP search method: dynamic search.
Parallel mode: deterministic, using up to 8 threads.
Root relaxation solution time = 0.00 sec. (2.37 ticks)

        Nodes                                         Cuts/
   Node  Left     Objective  IInf  Best Integer    Best Bound    ItCnt     Gap

      0     0   607251.4770   140                 607251.4770      177         
      0     0   607382.1694    52                    Cuts: 47      207         
      0     0   607395.6471    54                    Cuts: 17      230         
      0     0   607395.9131    54                     Cuts: 2      232         
*     0+    0                       607736.0000   607395.9131             0.06%
*     0+    0                       607623.0000   607395.9131             0.04%
*     0+    0                       607505.0000   607395.9131             0.02%
      0     2   607395.9131    45   607505.0000   607395.9131      232    0.02%
Elapsed time = 0.21 sec. (40.27 ticks, tree = 0.01 MB, solutions = 3)
*   214+  107                       607495.0000   607408.7313             0.01%
*   241+   79                       607454.0000   607408.7313             0.01%

Implied bound cuts applied:  16
Mixed integer rounding cuts applied:  4
Zero-half cuts applied:  5
Gomory fractional cuts applied:  23

Root node processing (before b&c):
  Real time             =    0.19 sec. (40.04 ticks)
Parallel b&c, 8 threads:
  Real time             =    0.09 sec. (18.55 ticks)
  Sync time (average)   =    0.05 sec.
  Wait time (average)   =    0.00 sec.
                          ------------
Total (root+branch&cut) =    0.29 sec. (58.59 ticks)

Solution pool: 6 solutions saved.

MIP - Integer optimal, tolerance (0.0001/1e-06):  Objective =  6.0745400000e+05
Current MIP best bound =  6.0740993134e+05 (gap = 44.0687, 0.01%)
Solution time =    0.29 sec.  Iterations = 1373  Nodes = 288 (132)
Deterministic time = 58.59 ticks  (200.06 ticks/sec)


Incumbent solution written to file '/home/ahmadalikhani/Desktop/astran-new-cmd/bin/Debug/xmlsol.sol'.
